
Welcome to IBM(R) ILOG(R) CPLEX(R) Interactive Optimizer 22.1.1.0
  with Simplex, Mixed Integer & Barrier Optimizers
5725-A06 5725-A29 5724-Y48 5724-Y49 5724-Y54 5724-Y55 5655-Y21
Copyright IBM Corp. 1988, 2022.  All Rights Reserved.

Type 'help' for a list of available commands.
Type 'help' followed by a command name for more
information on commands.

CPLEX> Selected objective sense:  MINIMIZE
Selected objective  name:  00000000
Selected RHS        name:  RHS1
Selected bound      name:  BOUND
Problem 'ee.mps' read.
Read time = 0.01 sec. (3.17 ticks)
CPLEX> New value for time limit in seconds: 7200
CPLEX> New value for parallel optimization mode: -1
CPLEX> New value for default parallel thread count: 40
CPLEX> New value for mixed integer optimality gap tolerance: 1e-13
CPLEX> Version identifier: 22.1.1.0 | 2022-11-28 | 9160aff4d
CPXPARAM_Threads                                 40
CPXPARAM_Parallel                                -1
CPXPARAM_TimeLimit                               7200
CPXPARAM_MIP_Tolerances_MIPGap                   1e-13
Found incumbent of value 0.000000 after 0.00 sec. (0.31 ticks)
Tried aggregator 2 times.
MIP Presolve eliminated 182 rows and 2745 columns.
MIP Presolve modified 6090 coefficients.
Aggregator did 713 substitutions.
Reduced MIP has 3636 rows, 7840 columns, and 28952 nonzeros.
Reduced MIP has 7840 binaries, 0 generals, 0 SOSs, and 0 indicators.
Presolve time = 0.07 sec. (69.14 ticks)
Probing time = 0.03 sec. (5.87 ticks)
Tried aggregator 1 time.
Detecting symmetries...
Reduced MIP has 3636 rows, 7840 columns, and 28952 nonzeros.
Reduced MIP has 7840 binaries, 0 generals, 0 SOSs, and 0 indicators.
Presolve time = 0.02 sec. (22.09 ticks)
Probing time = 0.02 sec. (5.67 ticks)
Clique table members: 18787.
MIP emphasis: balance optimality and feasibility.
MIP search method: dynamic search.
Parallel mode: opportunistic, using up to 40 threads.
Root relaxation solution time = 0.10 sec. (74.37 ticks)

        Nodes                                         Cuts/
   Node  Left     Objective  IInf  Best Integer    Best Bound    ItCnt     Gap

*     0+    0                            0.0000  -1.54000e+13              --- 
*     0+    0                      -5.78000e+12  -1.54000e+13           166.44%
      0     0  -1.53900e+13    81  -5.78000e+12  -1.53900e+13     2080  166.26%
*     0+    0                      -1.53900e+13  -1.53900e+13             0.00%
      0     0  -1.53900e+13   185  -1.53900e+13      Cuts: 63     2536    0.00%
      0     0  -1.53900e+13   231  -1.53900e+13     Cuts: 106     2686    0.00%
*     0+    0                      -1.53900e+13  -1.53900e+13             0.00%
*     0+    0                      -1.53900e+13  -1.53900e+13             0.00%
*     0+    0                      -1.53900e+13  -1.53900e+13             0.00%
      0     2  -1.53900e+13   210  -1.53900e+13  -1.53900e+13     2686    0.00%
Elapsed time = 1.93 sec. (1078.11 ticks, tree = 0.02 MB, solutions = 6)
    132     6  -1.53900e+13   135  -1.53900e+13  -1.53900e+13     4670    0.00%
    435   161  -1.53900e+13   158  -1.53900e+13  -1.53900e+13    80027    0.00%
    738   155        cutoff        -1.53900e+13  -1.53900e+13   101555    0.00%
   1091   175        cutoff        -1.53900e+13  -1.53900e+13   138668    0.00%
   1642   191  -1.53900e+13   164  -1.53900e+13  -1.53900e+13   135374    0.00%
   2484   160  -1.53900e+13   100  -1.53900e+13  -1.53900e+13   205103    0.00%
   3411   151  -1.53900e+13   133  -1.53900e+13  -1.53900e+13   210124    0.00%
   4037   169  -1.53900e+13    65  -1.53900e+13  -1.53900e+13   380608    0.00%
   4557   134        cutoff        -1.53900e+13  -1.53900e+13   314693    0.00%
   6948   467        cutoff        -1.53900e+13  -1.53900e+13   484998    0.00%
Elapsed time = 8.48 sec. (4181.65 ticks, tree = 2.48 MB, solutions = 10)
   9533   905        cutoff        -1.53900e+13  -1.53900e+13   627025    0.00%
  11357   941        cutoff        -1.53900e+13  -1.53900e+13   764993    0.00%
  12110   873  -1.53900e+13   217  -1.53900e+13  -1.53900e+13   811867    0.00%

Performing restart 1

Repeating presolve.
Tried aggregator 2 times.
MIP Presolve eliminated 28 rows and 13 columns.
MIP Presolve modified 1861 coefficients.
Aggregator did 1 substitutions.
Reduced MIP has 3531 rows, 7826 columns, and 28312 nonzeros.
Reduced MIP has 7826 binaries, 0 generals, 0 SOSs, and 0 indicators.
Presolve time = 0.03 sec. (28.02 ticks)
Tried aggregator 2 times.
MIP Presolve eliminated 43 rows and 169 columns.
MIP Presolve modified 32 coefficients.
Aggregator did 47 substitutions.
Reduced MIP has 3441 rows, 7592 columns, and 27486 nonzeros.
Reduced MIP has 7592 binaries, 0 generals, 0 SOSs, and 0 indicators.
Presolve time = 0.05 sec. (46.88 ticks)
Tried aggregator 2 times.
MIP Presolve eliminated 3 rows and 14 columns.
Aggregator did 3 substitutions.
Reduced MIP has 3435 rows, 7574 columns, and 27420 nonzeros.
Reduced MIP has 7574 binaries, 0 generals, 0 SOSs, and 0 indicators.
Presolve time = 0.04 sec. (43.18 ticks)
Represolve time = 0.29 sec. (227.83 ticks)
  12157     0  -1.53900e+13   298  -1.53900e+13      Cuts: 29   944669    0.00%
  12157     0  -1.53900e+13   324  -1.53900e+13      Cuts: 31   945074    0.00%
  12157     0  -1.53900e+13   359  -1.53900e+13      Cuts: 27   945733    0.00%
  12157     0  -1.53900e+13   284  -1.53900e+13      Cuts: 22   946249    0.00%
  12157     0  -1.53900e+13   286  -1.53900e+13      Cuts: 25   946366    0.00%
  12157     8    infeasible        -1.53900e+13  -1.53900e+13   952039    0.00%
  12525     6  -1.53900e+13    67  -1.53900e+13  -1.53900e+13   971817    0.00%

GUB cover cuts applied:  5
Clique cuts applied:  13
Cover cuts applied:  283
Mixed integer rounding cuts applied:  12
Zero-half cuts applied:  22
Lift and project cuts applied:  6
Gomory fractional cuts applied:  21

Root node processing (before b&c):
  Real time             =    1.24 sec. (1076.41 ticks)
Parallel b&c, 40 threads:
  Real time             =   15.90 sec. (10903.56 ticks)
  Sync time (average)   =    3.74 sec.
  Wait time (average)   =    0.10 sec.
                          ------------
Total (root+branch&cut) =   17.14 sec. (11979.98 ticks)

Solution pool: 11 solutions saved.

MIP - Integer optimal solution:  Objective = -1.5389997789e+13
Solution time =   17.24 sec.  Iterations = 975662  Nodes = 12558
Deterministic time = 11980.01 ticks  (695.01 ticks/sec)

CPLEX> Solution 'p12' written to file 'ee.sol'.
CPLEX> 